500
    1     4     4
    2    46    46
    3    48    48
    4    19    19
    5     4     4
    6    20    20
    7    13    13
    8    50    50
    9    28    28
   10     6     6
   11    44    44
   12    41    41
   13     1     1
   14    20    20
   15     8     8
   16    10    10
   17    19    19
   18    45    45
   19    20    20
   20    33    33
   21     8     8
   22    45    45
   23    33    33
   24    45    45
   25    46    46
   26    13    13
   27    16    16
   28    42    42
   29    11    11
   30    21    21
   31     1     1
   32     2     2
   33    31    31
   34     8     8
   35    46    46
   36    32    32
   37    47    47
   38    37    37
   39     8     8
   40     6     6
   41    37    37
   42    20    20
   43    44    44
   44     5     5
   45     6     6
   46     2     2
   47    31    31
   48    14    14
   49    15    15
   50    43    43
   51    32    32
   52    13    13
   53    20    20
   54    38    38
   55    36    36
   56    20    20
   57    10    10
   58    32    32
   59    21    21
   60    11    11
   61    48    48
   62    43    43
   63    50    50
   64    46    46
   65    40    40
   66    22    22
   67    17    17
   68    47    47
   69    44    44
   70    18    18
   71     9     9
   72    35    35
   73    48    48
   74    41    41
   75     3     3
   76    37    37
   77    10    10
   78    39    39
   79     9     9
   80     8     8
   81     1     1
   82    20    20
   83     2     2
   84    42    42
   85    30    30
   86    18    18
   87    34    34
   88    27    27
   89    31    31
   90    23    23
   91    47    47
   92    25    25
   93     8     8
   94    13    13
   95    26    26
   96     1     1
   97     9     9
   98    43    43
   99    18    18
  100    36    36
  101     7     7
  102    35    35
  103     2     2
  104    39    39
  105    39    39
  106     1     1
  107    14    14
  108    29    29
  109    31    31
  110    32    32
  111    38    38
  112    18    18
  113     9     9
  114     1     1
  115    31    31
  116    42    42
  117    22    22
  118    12    12
  119     4     4
  120    37    37
  121     9     9
  122    48    48
  123    37    37
  124     4     4
  125    30    30
  126    16    16
  127     3     3
  128    48    48
  129    30    30
  130    49    49
  131    40    40
  132     3     3
  133    15    15
  134    11    11
  135    15    15
  136    20    20
  137    20    20
  138     3     3
  139    20    20
  140    38    38
  141    22    22
  142    17    17
  143    28    28
  144     5     5
  145     6     6
  146    31    31
  147     3     3
  148     4     4
  149    42    42
  150     7     7
  151     7     7
  152    18    18
  153    15    15
  154     2     2
  155     1     1
  156    15    15
  157    37    37
  158    20    20
  159    33    33
  160    18    18
  161    16    16
  162     3     3
  163    22    22
  164    18    18
  165    49    49
  166     6     6
  167    22    22
  168     4     4
  169    26    26
  170    17    17
  171    38    38
  172    27    27
  173    34    34
  174     2     2
  175    40    40
  176     9     9
  177    30    30
  178    34    34
  179    25    25
  180    21    21
  181    47    47
  182    46    46
  183    39    39
  184     2     2
  185    27    27
  186    36    36
  187    22    22
  188    23    23
  189    50    50
  190    22    22
  191     7     7
  192    37    37
  193    17    17
  194     1     1
  195     3     3
  196     4     4
  197    14    14
  198    41    41
  199    28    28
  200    15    15
  201    21    21
  202     1     1
  203    22    22
  204     4     4
  205    48    48
  206     3     3
  207    38    38
  208    16    16
  209    41    41
  210    15    15
  211    34    34
  212    15    15
  213    15    15
  214    24    24
  215     5     5
  216     1     1
  217    35    35
  218     2     2
  219    37    37
  220     7     7
  221    45    45
  222     8     8
  223    13    13
  224     4     4
  225    19    19
  226     2     2
  227     9     9
  228    12    12
  229    27    27
  230    20    20
  231    17    17
  232    21    21
  233    43    43
  234    35    35
  235    15    15
  236    27    27
  237    11    11
  238    20    20
  239    29    29
  240    35    35
  241    14    14
  242    26    26
  243    17    17
  244     7     7
  245    32    32
  246    40    40
  247    39    39
  248    37    37
  249     3     3
  250    48    48
  251     1     1
  252    11    11
  253    24    24
  254    39    39
  255    10    10
  256    22    22
  257    41    41
  258    12    12
  259     5     5
  260    13    13
  261     6     6
  262    35    35
  263    15    15
  264    37    37
  265    47    47
  266    18    18
  267    20    20
  268    41    41
  269    43    43
  270    40    40
  271     2     2
  272     8     8
  273    49    49
  274    21    21
  275     3     3
  276    40    40
  277    16    16
  278    11    11
  279    40    40
  280    10    10
  281    33    33
  282    28    28
  283     1     1
  284    39    39
  285    11    11
  286    26    26
  287     1     1
  288    10    10
  289     3     3
  290    42    42
  291    30    30
  292    13    13
  293    20    20
  294    19    19
  295    31    31
  296    13    13
  297    45    45
  298     7     7
  299    30    30
  300    41    41
  301    43    43
  302     1     1
  303    41    41
  304     7     7
  305    12    12
  306    30    30
  307    14    14
  308    30    30
  309    10    10
  310    37    37
  311     4     4
  312    24    24
  313    40    40
  314    18    18
  315    21    21
  316    27    27
  317    38    38
  318    30    30
  319    13    13
  320    21    21
  321    15    15
  322    23    23
  323    25    25
  324    42    42
  325    30    30
  326    36    36
  327    16    16
  328    21    21
  329    35    35
  330     3     3
  331    24    24
  332    13    13
  333    25    25
  334    29    29
  335     2     2
  336    16    16
  337     4     4
  338     8     8
  339    43    43
  340    11    11
  341    35    35
  342    11    11
  343    22    22
  344    48    48
  345    47    47
  346    30    30
  347    12    12
  348    26    26
  349    21    21
  350    21    21
  351    27    27
  352     2     2
  353    16    16
  354    39    39
  355    17    17
  356     6     6
  357    16    16
  358    28    28
  359    38    38
  360    15    15
  361    37    37
  362    25    25
  363    11    11
  364    14    14
  365    44    44
  366    21    21
  367    34    34
  368    29    29
  369    15    15
  370    25    25
  371    35    35
  372    50    50
  373    24    24
  374    49    49
  375    31    31
  376    12    12
  377    22    22
  378     4     4
  379    29    29
  380     5     5
  381     2     2
  382     7     7
  383    31    31
  384    42    42
  385    46    46
  386    20    20
  387     4     4
  388    26    26
  389    17    17
  390    32    32
  391    28    28
  392    14    14
  393    24    24
  394    41    41
  395    40    40
  396    10    10
  397    13    13
  398    15    15
  399     9     9
  400    50    50
  401    35    35
  402     6     6
  403     3     3
  404    12    12
  405     5     5
  406    18    18
  407    33    33
  408    44    44
  409    31    31
  410    36    36
  411    17    17
  412    17    17
  413    36    36
  414    41    41
  415    40    40
  416    18    18
  417    21    21
  418     4     4
  419    49    49
  420    33    33
  421    20    20
  422    13    13
  423    48    48
  424     1     1
  425    31    31
  426    35    35
  427    31    31
  428     9     9
  429    40    40
  430    24    24
  431    33    33
  432     1     1
  433    16    16
  434    27    27
  435    38    38
  436    41    41
  437    23    23
  438    20    20
  439    42    42
  440    43    43
  441    10    10
  442    32    32
  443    39    39
  444    31    31
  445    11    11
  446    38    38
  447    22    22
  448    37    37
  449    28    28
  450    13    13
  451    26    26
  452     2     2
  453    15    15
  454    20    20
  455    27    27
  456    20    20
  457    43    43
  458    31    31
  459     3     3
  460    25    25
  461    27    27
  462     8     8
  463    42    42
  464    33    33
  465    49    49
  466    18    18
  467     4     4
  468     4     4
  469    13    13
  470    24    24
  471    36    36
  472    37    37
  473    21    21
  474    11    11
  475    49    49
  476    35    35
  477    43    43
  478     8     8
  479    41    41
  480    15    15
  481    23    23
  482    39    39
  483    15    15
  484    37    37
  485    47    47
  486    42    42
  487    21    21
  488    14    14
  489    48    48
  490    38    38
  491     5     5
  492    46    46
  493    38    38
  494    48    48
  495    14    14
  496    15    15
  497    12    12
  498     3     3
  499    46    46
  500    32    32
3929
